2
1000 7
140
16 1 2
20 1 4
23 1 3
24 1 1
27 1 2
29 1 1
30 1 1
34 1 2
35 1 1
36 1 1
37 1 2
38 1 5
39 1 1
40 1 1
41 1 1
42 1 1
43 1 1
44 1 1
45 1 1
46 1 2
47 1 2
49 1 1
51 1 4
52 1 3
53 1 1
54 1 1
55 1 1
56 1 3
57 1 1
58 1 1
62 1 2
63 1 2
65 1 2
66 1 1
68 1 1
69 1 1
72 1 3
73 1 1
74 1 1
75 1 1
76 1 1
83 1 1
84 1 1
86 1 3
88 1 1
89 1 1
91 1 1
94 1 2
95 1 1
96 1 2
98 1 1
99 1 1
100 1 1
101 1 1
104 1 1
105 1 2
112 1 1
113 1 2
115 1 1
119 1 2
120 1 1
126 1 1
127 1 1
130 1 2
131 1 1
133 1 2
134 1 1
135 1 1
139 1 1
141 1 1
142 1 3
143 1 1
144 1 2
145 1 1
149 1 3
151 1 1
152 1 1
154 1 1
155 1 1
156 1 1
157 1 1
160 1 1
162 1 1
163 1 1
167 1 1
169 1 2
172 1 3
173 1 1
176 1 1
178 1 1
179 1 1
181 1 1
183 1 1
184 1 1
187 1 1
188 1 1
190 1 2
191 1 2
193 1 2
194 1 1
195 1 1
196 1 3
197 1 1
198 1 1
199 1 1
201 1 2
203 1 1
205 1 1
206 1 2
210 1 1
212 1 2
215 1 1
216 1 1
217 1 1
218 1 1
219 1 1
222 1 2
223 1 1
224 1 3
225 1 1
227 1 2
234 1 1
235 1 1
238 1 1
241 1 1
242 1 1
244 1 2
245 1 1
248 1 1
249 1 1
250 1 2
254 1 1
255 1 1
258 1 2
259 1 2
260 1 1
261 1 1
262 1 1
264 1 1
265 1 1
